(set-logic QF_S)
(declare-fun var0 () String)
(declare-fun var1 () String)
(declare-fun var2 () String)
(declare-fun var3 () String)
(declare-fun var4 () String)
(declare-fun var5 () String)
(declare-fun var6 () String)
(declare-fun var7 () String)
(declare-fun var8 () String)
(declare-fun var9 () String)
(declare-fun var10 () String)
(declare-fun var11 () String)
(declare-fun var12 () String)
(declare-fun var13 () String)
(declare-fun var14 () String)
(declare-fun var15 () String)
(declare-fun var16 () String)
(declare-fun var17 () String)
(declare-fun var18 () String)
(declare-fun var19 () String)
(declare-fun var20 () String)
(declare-fun var21 () String)
(declare-fun var22 () String)
(declare-fun var23 () String)
(declare-fun var24 () String)
(declare-fun var25 () String)
(declare-fun var26 () String)
(declare-fun var27 () String)
(declare-fun var28 () String)
(declare-fun var29 () String)
(declare-fun var30 () String)
(declare-fun var31 () String)
(declare-fun var32 () String)
(declare-fun var33 () String)
(declare-fun var34 () String)
(declare-fun var35 () String)
(declare-fun var36 () String)
(declare-fun var37 () String)
(declare-fun var38 () String)
(declare-fun var39 () String)
(declare-fun var40 () String)
(declare-fun var41 () String)
(declare-fun var42 () String)
(declare-fun var43 () String)
(declare-fun var44 () String)
(declare-fun var45 () String)
(declare-fun var46 () String)
(declare-fun var47 () String)
(declare-fun var48 () String)
(declare-fun var49 () String)
(declare-fun var50 () String)
(declare-fun var51 () String)
(declare-fun var52 () String)
(declare-fun var53 () String)
(declare-fun var54 () String)
(declare-fun var55 () String)
(declare-fun var56 () String)
(declare-fun var57 () String)
(declare-fun var58 () String)
(declare-fun var59 () String)
(declare-fun var60 () String)
(assert (= var0 (str.++ var1 var2)))
(assert (= var2 (str.++ var3 var4)))
(assert (= var4 (str.++ var5 var6)))
(assert (= var6 (str.++ var7 var8)))
(assert (= var8 (str.++ var9 var10)))
(assert (= var10 (str.++ var11 var12)))
(assert (= var12 (str.++ var13 var14)))
(assert (= var14 (str.++ var15 var16)))
(assert (= var16 (str.++ var17 var18)))
(assert (= var18 (str.++ var19 var20)))
(assert (= var20 (str.++ var21 var22)))
(assert (= var22 (str.++ var23 var24)))
(assert (= var24 (str.++ var25 var26)))
(assert (= var26 (str.++ var27 var28)))
(assert (= var28 (str.++ var29 var30)))
(assert (= var30 (str.++ var31 var32)))
(assert (= var32 (str.++ var33 var34)))
(assert (= var34 (str.++ var35 var36)))
(assert (= var36 (str.++ var37 var38)))
(assert (= var38 (str.++ var39 var40)))
(assert (= var40 (str.++ var41 var42)))
(assert (= var42 (str.++ var43 var44)))
(assert (= var44 (str.++ var45 var46)))
(assert (= var46 (str.++ var47 var48)))
(assert (= var48 (str.++ var49 var50)))
(assert (= var50 (str.++ var51 var52)))
(assert (= var52 (str.++ var53 var54)))
(assert (= var54 (str.++ var55 var56)))
(assert (= var56 (str.++ var57 var58)))
(assert (= var58 (str.++ var59 var60)))
(assert (= var0 "solution"))
(assert (= "U" (str.at var41 588)))
(assert (= "l" (str.at var46 676)))
(assert (= "'" (str.at var26 520)))
(assert (= "z" (str.at var1 925)))
(assert (= "^" (str.at var39 195)))
(assert (= "Z" (str.at var53 800)))
(assert (= "1" (str.at var17 556)))
(assert (= "z" (str.at var8 539)))
(assert (= "f" (str.at var25 250)))
(assert (= "b" (str.at var1 807)))
(assert (= "e" (str.at var26 816)))
(assert (= "M" (str.at var43 653)))
(assert (= "W" (str.at var54 542)))
(assert (= "H" (str.at var45 262)))
(assert (= "?" (str.at var20 839)))
(assert (= "z" (str.at var57 993)))
(assert (= "B" (str.at var31 403)))
(assert (= "k" (str.at var27 982)))
(assert (= "x" (str.at var29 116)))
(assert (= "V" (str.at var2 858)))
(assert (= "P" (str.at var22 392)))
(assert (= "3" (str.at var29 514)))
(assert (= "1" (str.at var5 98)))
(assert (= "W" (str.at var57 27)))
(assert (= "~" (str.at var38 778)))
(assert (= "&" (str.at var40 605)))
(assert (= "," (str.at var27 994)))
(assert (= "m" (str.at var43 605)))
(assert (= "J" (str.at var57 118)))
(assert (= "D" (str.at var24 369)))
(assert (= "P" (str.at var23 380)))
(assert (= "m" (str.at var43 523)))
(assert (= "_" (str.at var42 844)))
(assert (= "1" (str.at var51 587)))
(assert (= "e" (str.at var50 647)))
(assert (= "s" (str.at var21 194)))
(assert (= "l" (str.at var21 231)))
(assert (= "5" (str.at var14 967)))
(assert (= "l" (str.at var12 26)))
(assert (= "a" (str.at var6 199)))
(assert (= "D" (str.at var40 523)))
(assert (= "!" (str.at var20 7)))
(assert (= "X" (str.at var16 77)))
(assert (= "t" (str.at var37 612)))
(assert (= "(" (str.at var30 509)))
(assert (= "1" (str.at var40 542)))
(assert (= "e" (str.at var4 933)))
(assert (= "k" (str.at var44 352)))
(assert (= "p" (str.at var34 125)))
(assert (= "0" (str.at var59 238)))
(assert (= "f" (str.at var28 718)))
(assert (= "Q" (str.at var40 696)))
(assert (= "S" (str.at var33 531)))
(assert (= "$" (str.at var26 734)))
(assert (= "k" (str.at var2 535)))
(assert (= "!" (str.at var13 608)))
(assert (= "3" (str.at var38 498)))
(assert (= "q" (str.at var44 953)))
(assert (= "~" (str.at var31 156)))
(assert (= "}" (str.at var2 490)))
(assert (= "Y" (str.at var54 819)))
(assert (= "Z" (str.at var32 201)))
(assert (= "H" (str.at var49 473)))
(assert (= """" (str.at var29 89)))
(assert (= "8" (str.at var56 256)))
(assert (= "I" (str.at var20 90)))
(assert (= "L" (str.at var14 632)))
(assert (= "l" (str.at var58 836)))
(assert (= "}" (str.at var45 142)))
(assert (= "|" (str.at var14 140)))
(assert (= "1" (str.at var41 179)))
(assert (= "y" (str.at var15 640)))
(assert (= "*" (str.at var41 392)))
(assert (= "j" (str.at var33 726)))
(assert (= "g" (str.at var13 470)))
(assert (= "&" (str.at var24 538)))
(assert (= "g" (str.at var30 577)))
(assert (= "e" (str.at var17 662)))
(assert (= """" (str.at var0 806)))
(assert (= "Z" (str.at var55 168)))
(assert (= "V" (str.at var43 659)))
(assert (= "q" (str.at var22 530)))
(assert (= "t" (str.at var52 509)))
(assert (= "{" (str.at var10 769)))
(assert (= "S" (str.at var14 14)))
(assert (= "B" (str.at var18 490)))
(assert (= "w" (str.at var33 898)))
(assert (= "a" (str.at var2 452)))
(assert (= "," (str.at var2 774)))
(assert (= "@" (str.at var19 703)))
(assert (= "\\" (str.at var5 300)))
(assert (= "{" (str.at var56 767)))
(assert (= "%" (str.at var10 982)))
(assert (= "k" (str.at var56 321)))
(assert (= "L" (str.at var39 622)))
(assert (= "|" (str.at var55 719)))
(assert (= ";" (str.at var14 275)))
(assert (= """" (str.at var12 181)))
(assert (= "(" (str.at var15 422)))
(assert (= "L" (str.at var20 551)))
(assert (= "h" (str.at var32 482)))
(assert (= "w" (str.at var15 408)))
(assert (= "N" (str.at var40 400)))
(assert (= "'" (str.at var15 241)))
(assert (= "E" (str.at var41 122)))
(assert (= "<" (str.at var48 455)))
(assert (= "@" (str.at var0 933)))
(assert (= "H" (str.at var9 136)))
(assert (= "k" (str.at var1 974)))
(assert (= "m" (str.at var56 17)))
(assert (= "V" (str.at var43 724)))
(assert (= "C" (str.at var18 954)))
(assert (= "z" (str.at var35 594)))
(assert (= "_" (str.at var28 304)))
(assert (= "a" (str.at var49 595)))
(assert (= "|" (str.at var15 726)))
(assert (= "b" (str.at var16 806)))
(assert (= "]" (str.at var44 415)))
(assert (= "|" (str.at var59 725)))
(assert (= "q" (str.at var30 607)))
(assert (= ")" (str.at var24 215)))
(assert (= ":" (str.at var60 391)))
(assert (= "}" (str.at var29 570)))
(assert (= "@" (str.at var38 876)))
(assert (= "7" (str.at var8 745)))
(assert (= "\\" (str.at var14 336)))
(assert (= "Z" (str.at var5 270)))
(assert (= "B" (str.at var14 494)))
(assert (= "~" (str.at var35 493)))
(assert (= "h" (str.at var38 216)))
(assert (= "i" (str.at var53 903)))
(assert (= "w" (str.at var29 596)))
(assert (= ";" (str.at var45 56)))
(assert (= "?" (str.at var11 791)))
(assert (= "b" (str.at var60 777)))
(assert (= "R" (str.at var50 679)))
(assert (= "o" (str.at var44 97)))
(assert (= "_" (str.at var18 829)))
(assert (= "[" (str.at var38 882)))
(assert (= "5" (str.at var47 432)))
(assert (= "x" (str.at var49 728)))
(assert (= "N" (str.at var12 208)))
(assert (= "x" (str.at var14 464)))
(assert (= "O" (str.at var43 291)))
(assert (= "h" (str.at var16 301)))
(assert (= "T" (str.at var20 320)))
(assert (= "y" (str.at var29 634)))
(assert (= "&" (str.at var6 440)))
(assert (= "}" (str.at var54 634)))
(assert (= "R" (str.at var36 187)))
(assert (= "@" (str.at var39 624)))
(assert (= "]" (str.at var24 563)))
(assert (= "[" (str.at var40 122)))
(assert (= "[" (str.at var8 870)))
(assert (= "5" (str.at var37 179)))
(assert (= "5" (str.at var22 173)))
(assert (= "$" (str.at var26 443)))
(assert (= "[" (str.at var37 373)))
(assert (= "9" (str.at var12 656)))
(assert (= "6" (str.at var9 842)))
(assert (= "H" (str.at var22 285)))
(assert (= "k" (str.at var32 757)))
(assert (= "P" (str.at var4 423)))
(assert (= "T" (str.at var33 390)))
(assert (= "." (str.at var56 853)))
(assert (= "T" (str.at var39 620)))
(assert (= "V" (str.at var58 999)))
(assert (= "=" (str.at var5 381)))
(assert (= "m" (str.at var26 373)))
(assert (= "p" (str.at var47 203)))
(assert (= "S" (str.at var27 626)))
(assert (= "i" (str.at var24 60)))
(assert (= "I" (str.at var58 300)))
(assert (= "G" (str.at var7 159)))
(assert (= "|" (str.at var54 376)))
(assert (= "|" (str.at var40 493)))
(assert (= "N" (str.at var7 633)))
(assert (= "R" (str.at var56 156)))
(assert (= "T" (str.at var51 768)))
(assert (= "P" (str.at var37 515)))
(assert (= "W" (str.at var4 465)))
(assert (= "*" (str.at var0 607)))
(assert (= ":" (str.at var0 718)))
(assert (= "v" (str.at var29 654)))
(assert (= "*" (str.at var19 521)))
(assert (= "L" (str.at var20 881)))
(assert (= "y" (str.at var59 887)))
(assert (= "l" (str.at var43 995)))
(assert (= "$" (str.at var3 15)))
(assert (= "u" (str.at var29 64)))
(assert (= "U" (str.at var24 438)))
(assert (= "H" (str.at var29 197)))
(assert (= "," (str.at var15 728)))
(assert (= "=" (str.at var5 209)))
(assert (= "K" (str.at var34 566)))
(assert (= "." (str.at var27 702)))
(assert (= "g" (str.at var48 187)))
(assert (= "(" (str.at var30 953)))
(assert (= """" (str.at var29 406)))
(assert (= ":" (str.at var2 573)))
(assert (= "u" (str.at var53 776)))
(assert (= "V" (str.at var7 176)))
(assert (= "f" (str.at var32 287)))
(assert (= "5" (str.at var4 322)))
(assert (= "^" (str.at var59 373)))
(assert (= "|" (str.at var50 305)))
(assert (= "9" (str.at var8 194)))
(assert (= "/" (str.at var35 28)))
(assert (= "2" (str.at var30 262)))
(assert (= "$" (str.at var55 394)))
(assert (= "B" (str.at var41 237)))
(assert (= "%" (str.at var6 222)))
(assert (= "A" (str.at var2 977)))
(assert (= "M" (str.at var33 266)))
(assert (= "E" (str.at var53 575)))
(assert (= "^" (str.at var23 954)))
(assert (= "n" (str.at var24 694)))
(assert (= "k" (str.at var35 72)))
(assert (= "/" (str.at var29 996)))
(assert (= "v" (str.at var2 132)))
(assert (= "N" (str.at var1 448)))
(assert (= "%" (str.at var42 681)))
(assert (= "P" (str.at var1 948)))
(assert (= "s" (str.at var46 34)))
(assert (= "E" (str.at var19 503)))
(assert (= "]" (str.at var47 98)))
(assert (= "$" (str.at var36 246)))
(assert (= "Y" (str.at var19 377)))
(assert (= "3" (str.at var0 561)))
(assert (= "i" (str.at var19 437)))
(assert (= "$" (str.at var60 115)))
(assert (= "\\" (str.at var1 123)))
(assert (= "6" (str.at var55 524)))
(assert (= "O" (str.at var16 460)))
(assert (= "E" (str.at var12 738)))
(assert (= "Q" (str.at var33 825)))
(assert (= "h" (str.at var9 497)))
(assert (= "5" (str.at var33 296)))
(assert (= "b" (str.at var16 226)))
(assert (= "Y" (str.at var32 589)))
(assert (= "E" (str.at var41 36)))
(assert (= "j" (str.at var18 477)))
(assert (= "4" (str.at var13 211)))
(assert (= "-" (str.at var16 817)))
(assert (= "l" (str.at var50 987)))
(assert (= "3" (str.at var54 513)))
(assert (= "h" (str.at var45 669)))
(assert (= "a" (str.at var4 595)))
(assert (= "n" (str.at var46 25)))
(assert (= "i" (str.at var20 270)))
(assert (= "h" (str.at var53 407)))
(assert (= "W" (str.at var59 125)))
(assert (= "4" (str.at var17 728)))
(assert (= "+" (str.at var19 189)))
(assert (= "l" (str.at var55 241)))
(assert (= "2" (str.at var26 568)))
(assert (= "g" (str.at var24 85)))
(assert (= "t" (str.at var42 786)))
(assert (= "l" (str.at var46 290)))
(assert (= "]" (str.at var48 773)))
(assert (= "C" (str.at var11 74)))
(assert (= "n" (str.at var49 320)))
(assert (= "O" (str.at var34 66)))
(assert (= "C" (str.at var41 34)))
(assert (= "!" (str.at var8 390)))
(assert (= ")" (str.at var39 138)))
(assert (= "C" (str.at var8 950)))
(assert (= ">" (str.at var38 450)))
(assert (= "=" (str.at var51 289)))
(assert (= "0" (str.at var60 270)))
(assert (= "|" (str.at var12 373)))
(assert (= "d" (str.at var57 538)))
(assert (= ";" (str.at var35 947)))
(assert (= "i" (str.at var47 853)))
(assert (= "w" (str.at var54 724)))
(assert (= "]" (str.at var4 935)))
(assert (= "2" (str.at var0 979)))
(assert (= "p" (str.at var59 420)))
(assert (= "|" (str.at var13 454)))
(assert (= ">" (str.at var16 761)))
(assert (= ">" (str.at var48 93)))
(assert (= "N" (str.at var44 601)))
(assert (= "$" (str.at var24 118)))
(assert (= "'" (str.at var17 175)))
(assert (= "v" (str.at var46 10)))
(assert (= "[" (str.at var18 243)))
(assert (= "." (str.at var41 81)))
(assert (= "f" (str.at var15 988)))
(assert (= "d" (str.at var1 871)))
(assert (= "s" (str.at var5 396)))
(assert (= "n" (str.at var43 925)))
(assert (= "j" (str.at var0 537)))
(assert (= "'" (str.at var20 606)))
(assert (= "V" (str.at var19 372)))
(assert (= "`" (str.at var11 112)))
(assert (= "(" (str.at var59 274)))
(assert (= "q" (str.at var60 39)))
(assert (= "?" (str.at var11 684)))
(assert (= "#" (str.at var3 500)))
(assert (= "{" (str.at var48 198)))
(assert (= "." (str.at var55 471)))
(assert (= "/" (str.at var60 975)))
(assert (= "f" (str.at var38 898)))
(assert (= "n" (str.at var25 579)))
(assert (= "h" (str.at var14 738)))
(assert (= "~" (str.at var24 997)))
(assert (= "," (str.at var55 161)))
(assert (= "M" (str.at var14 69)))
(assert (= "`" (str.at var43 543)))
(assert (= "&" (str.at var43 86)))
(assert (= "k" (str.at var36 855)))
(assert (= "7" (str.at var16 471)))
(assert (= "|" (str.at var24 667)))
(assert (= "N" (str.at var60 200)))
(assert (= "6" (str.at var28 86)))
(assert (= "G" (str.at var33 50)))
(assert (= "$" (str.at var34 272)))
(assert (= "\\" (str.at var43 337)))
(assert (= "z" (str.at var39 583)))
(assert (= "4" (str.at var50 703)))
(assert (= "H" (str.at var30 899)))
(assert (= "=" (str.at var13 5)))
(assert (= "l" (str.at var42 566)))
(assert (= "2" (str.at var11 760)))
(assert (= "o" (str.at var6 84)))
(assert (= "r" (str.at var3 91)))
(assert (= "0" (str.at var21 738)))
(assert (= "e" (str.at var59 397)))
(assert (= "0" (str.at var4 212)))
(assert (= "F" (str.at var21 440)))
(assert (= ":" (str.at var36 869)))
(assert (= "Z" (str.at var29 664)))
(assert (= "9" (str.at var49 395)))
(assert (= "$" (str.at var3 776)))
(assert (= "~" (str.at var26 639)))
(assert (= "a" (str.at var7 33)))
(assert (= "B" (str.at var29 779)))
(assert (= "o" (str.at var17 109)))
(assert (= "s" (str.at var28 188)))
(assert (= "}" (str.at var0 643)))
(assert (= "f" (str.at var40 309)))
(assert (= "x" (str.at var57 532)))
(assert (= "@" (str.at var52 758)))
(assert (= "4" (str.at var30 559)))
(assert (= "S" (str.at var21 557)))
(assert (= "D" (str.at var7 569)))
(assert (= "<" (str.at var2 709)))
(assert (= "N" (str.at var49 271)))
(assert (= "u" (str.at var32 260)))
(assert (= "C" (str.at var60 613)))
(assert (= "7" (str.at var60 925)))
(assert (= "6" (str.at var32 861)))
(assert (= "&" (str.at var2 556)))
(assert (= "h" (str.at var22 519)))
(assert (= "h" (str.at var33 578)))
(assert (= "[" (str.at var41 156)))
(assert (= "A" (str.at var34 255)))
(assert (= "U" (str.at var35 237)))
(assert (= "t" (str.at var24 509)))
(assert (= "S" (str.at var57 902)))
(assert (= "H" (str.at var38 237)))
(assert (= "'" (str.at var19 718)))
(assert (= "r" (str.at var17 782)))
(assert (= "W" (str.at var28 770)))
(assert (= "q" (str.at var54 85)))
(assert (= "a" (str.at var26 101)))
(assert (= "y" (str.at var49 553)))
(assert (= "K" (str.at var20 370)))
(assert (= "%" (str.at var32 429)))
(assert (= "Y" (str.at var59 116)))
(assert (= "3" (str.at var50 11)))
(assert (= "=" (str.at var26 464)))
(assert (= "x" (str.at var42 860)))
(assert (= "F" (str.at var49 615)))
(assert (= "`" (str.at var12 521)))
(assert (= "F" (str.at var60 220)))
(assert (= "r" (str.at var11 309)))
(assert (= "Y" (str.at var47 962)))
(assert (= "q" (str.at var48 569)))
(assert (= "@" (str.at var22 627)))
(assert (= "k" (str.at var5 556)))
(assert (= "h" (str.at var0 786)))
(assert (= "a" (str.at var44 494)))
(assert (= "n" (str.at var46 382)))
(assert (= "3" (str.at var14 6)))
(assert (= ">" (str.at var17 704)))
(assert (= "," (str.at var50 63)))
(assert (= "J" (str.at var46 477)))
(assert (= "n" (str.at var9 262)))
(assert (= "B" (str.at var54 811)))
(assert (= "h" (str.at var40 551)))
(assert (= "q" (str.at var15 544)))
(assert (= "d" (str.at var54 778)))
(assert (= "$" (str.at var40 15)))
(assert (= "H" (str.at var8 406)))
(assert (= "i" (str.at var46 964)))
(assert (= "s" (str.at var9 52)))
(assert (= ")" (str.at var14 641)))
(assert (= "s" (str.at var30 367)))
(assert (= ")" (str.at var35 690)))
(assert (= "1" (str.at var57 988)))
(assert (= "D" (str.at var37 252)))
(assert (= "2" (str.at var14 648)))
(assert (= "K" (str.at var36 898)))
(assert (= "g" (str.at var19 201)))
(assert (= "`" (str.at var7 769)))
(assert (= "l" (str.at var19 509)))
(assert (= "T" (str.at var4 286)))
(assert (= "t" (str.at var57 291)))
(assert (= "," (str.at var52 822)))
(assert (= "L" (str.at var8 787)))
(assert (= "$" (str.at var14 768)))
(assert (= "q" (str.at var3 782)))
(assert (= "l" (str.at var48 219)))
(assert (= "d" (str.at var60 612)))
(assert (= """" (str.at var32 123)))
(assert (= "z" (str.at var52 710)))
(assert (= "x" (str.at var40 486)))
(assert (= "H" (str.at var3 365)))
(assert (= "#" (str.at var30 323)))
(assert (= "0" (str.at var55 121)))
(assert (= "K" (str.at var17 42)))
(assert (= "'" (str.at var31 956)))
(assert (= "K" (str.at var32 747)))
(assert (= "5" (str.at var29 606)))
(assert (= "J" (str.at var48 134)))
(assert (= "." (str.at var52 309)))
(assert (= "P" (str.at var10 928)))
(assert (= "M" (str.at var5 398)))
(assert (= "I" (str.at var26 301)))
(assert (= "S" (str.at var6 725)))
(assert (= "/" (str.at var33 358)))
(assert (= "S" (str.at var47 971)))
(assert (= "," (str.at var35 37)))
(assert (= "\\" (str.at var3 205)))
(assert (= "V" (str.at var42 794)))
(assert (= "b" (str.at var51 707)))
(assert (= "X" (str.at var33 926)))
(assert (= "y" (str.at var34 421)))
(assert (= "f" (str.at var14 232)))
(assert (= "W" (str.at var49 136)))
(assert (= "Z" (str.at var47 344)))
(assert (= "'" (str.at var20 101)))
(assert (= "M" (str.at var40 504)))
(assert (= "i" (str.at var25 629)))
(assert (= "$" (str.at var24 161)))
(assert (= "I" (str.at var51 792)))
(assert (= "f" (str.at var46 186)))
(assert (= "a" (str.at var20 112)))
(assert (= "#" (str.at var43 253)))
(assert (= ";" (str.at var48 270)))
(assert (= "<" (str.at var24 459)))
(assert (= ")" (str.at var38 405)))
(assert (= "t" (str.at var57 397)))
(assert (= "B" (str.at var49 883)))
(assert (= "@" (str.at var6 935)))
(assert (= "." (str.at var46 592)))
(assert (= "H" (str.at var50 235)))
(assert (= "u" (str.at var55 229)))
(assert (= "D" (str.at var44 982)))
(assert (= "u" (str.at var9 166)))
(assert (= "k" (str.at var60 273)))
(assert (= "G" (str.at var44 428)))
(assert (= "h" (str.at var57 3)))
(assert (= "y" (str.at var9 924)))
(assert (= "M" (str.at var9 456)))
(assert (= "#" (str.at var22 820)))
(assert (= "9" (str.at var42 707)))
(assert (= "Q" (str.at var16 670)))
(assert (= "C" (str.at var49 221)))
(assert (= "{" (str.at var45 452)))
(assert (= "*" (str.at var6 242)))
(assert (= """" (str.at var45 796)))
(assert (= "e" (str.at var49 402)))
(assert (= "p" (str.at var47 179)))
(assert (= "-" (str.at var46 468)))
(assert (= "k" (str.at var42 641)))
(assert (= "G" (str.at var19 329)))
(assert (= "E" (str.at var7 613)))
(assert (= "(" (str.at var0 129)))
(assert (= "Z" (str.at var26 655)))
(assert (= "M" (str.at var38 631)))
(assert (= "~" (str.at var18 260)))
(assert (= "A" (str.at var23 497)))
(assert (= "'" (str.at var3 399)))
(assert (= "S" (str.at var44 768)))
(assert (= "7" (str.at var57 796)))
(assert (= "L" (str.at var9 338)))
(assert (= "m" (str.at var10 231)))
(assert (= "c" (str.at var36 395)))
(assert (= "p" (str.at var16 894)))
(assert (= "A" (str.at var56 995)))
(assert (= "T" (str.at var49 706)))
(assert (= "g" (str.at var31 335)))
(assert (= "z" (str.at var4 318)))
(assert (= "|" (str.at var60 70)))
(assert (= "}" (str.at var20 479)))
(assert (= "s" (str.at var19 262)))
(assert (= "L" (str.at var46 423)))
(assert (= "A" (str.at var28 866)))
(assert (= "_" (str.at var56 758)))
(assert (= "o" (str.at var29 189)))
(assert (= "n" (str.at var44 495)))
(assert (= "N" (str.at var3 138)))
(assert (= "?" (str.at var37 157)))
(assert (= "y" (str.at var23 488)))
(assert (= "2" (str.at var55 391)))
(assert (= "E" (str.at var3 504)))
(assert (= "V" (str.at var40 383)))
(assert (= "p" (str.at var6 419)))
(assert (= "I" (str.at var22 821)))
(assert (= "p" (str.at var52 126)))
(assert (= "q" (str.at var26 439)))
(assert (= "/" (str.at var12 127)))
(assert (= "~" (str.at var33 902)))
(assert (= "|" (str.at var41 664)))
(assert (= "z" (str.at var59 573)))
(assert (= "8" (str.at var23 593)))
(assert (= "9" (str.at var6 827)))
(assert (= "j" (str.at var8 858)))
(assert (= "`" (str.at var46 856)))
(assert (= "I" (str.at var24 552)))
(assert (= "M" (str.at var0 154)))
(assert (= "8" (str.at var19 112)))
(assert (= "]" (str.at var25 628)))
(assert (= "H" (str.at var19 443)))
(assert (= "9" (str.at var7 564)))
(assert (= "p" (str.at var12 17)))
(assert (= "Z" (str.at var22 124)))
(assert (= "^" (str.at var36 120)))
(assert (= ":" (str.at var29 438)))
(assert (= "<" (str.at var37 258)))
(assert (= "M" (str.at var20 565)))
(assert (= "8" (str.at var40 367)))
(assert (= "<" (str.at var0 544)))
(assert (= "r" (str.at var18 7)))
(assert (= ":" (str.at var27 303)))
(assert (= "j" (str.at var35 713)))
(assert (= "K" (str.at var39 111)))
(assert (= "^" (str.at var21 632)))
(assert (= "@" (str.at var35 390)))
(assert (= "o" (str.at var5 639)))
(assert (= "A" (str.at var45 264)))
(assert (= "J" (str.at var6 37)))
(assert (= "m" (str.at var2 147)))
(assert (= """" (str.at var53 74)))
(assert (= "L" (str.at var42 247)))
(assert (= "A" (str.at var54 637)))
(assert (= "1" (str.at var50 612)))
(assert (= "i" (str.at var51 284)))
(assert (= "n" (str.at var14 190)))
(assert (= "R" (str.at var43 340)))
(assert (= "+" (str.at var24 756)))
(assert (= "D" (str.at var47 353)))
(assert (= "'" (str.at var10 413)))
(assert (= "O" (str.at var36 650)))
(assert (= "w" (str.at var60 696)))
(assert (= "U" (str.at var3 408)))
(assert (= "L" (str.at var22 637)))
(assert (= "+" (str.at var49 754)))
(assert (= "2" (str.at var0 476)))
(assert (= "@" (str.at var10 622)))
(assert (= "_" (str.at var34 701)))
(assert (= "<" (str.at var18 669)))
(assert (= ">" (str.at var18 256)))
(assert (= "~" (str.at var12 426)))
(assert (= "k" (str.at var53 426)))
(assert (= "[" (str.at var22 213)))
(assert (= "p" (str.at var52 996)))
(assert (= "K" (str.at var56 978)))
(assert (= "&" (str.at var9 546)))
(assert (= "C" (str.at var59 104)))
(assert (= "3" (str.at var60 450)))
(assert (= "[" (str.at var6 439)))
(assert (= "W" (str.at var42 500)))
(assert (= """" (str.at var56 544)))
(assert (= "r" (str.at var20 543)))
(assert (= "U" (str.at var47 558)))
(assert (= "?" (str.at var5 595)))
(assert (= "6" (str.at var28 574)))
(assert (= "p" (str.at var41 443)))
(assert (= "M" (str.at var36 379)))
(assert (= "D" (str.at var36 948)))
(assert (= "j" (str.at var36 176)))
(assert (= "<" (str.at var0 550)))
(assert (= "$" (str.at var50 82)))
(assert (= "+" (str.at var6 138)))
(assert (= "%" (str.at var28 461)))
(assert (= "c" (str.at var42 592)))
(assert (= "!" (str.at var39 371)))
(assert (= "v" (str.at var54 557)))
(assert (= "(" (str.at var44 812)))
(assert (= "R" (str.at var43 152)))
(assert (= "\\" (str.at var46 307)))
(assert (= "A" (str.at var1 232)))
(assert (= "9" (str.at var21 43)))
(assert (= "*" (str.at var57 981)))
(assert (= "7" (str.at var47 792)))
(assert (= "'" (str.at var26 492)))
(assert (= "`" (str.at var20 501)))
(assert (= "`" (str.at var0 48)))
(assert (= "2" (str.at var8 833)))
(assert (= "'" (str.at var59 895)))
(assert (= "+" (str.at var28 49)))
(assert (= "\\" (str.at var35 282)))
(assert (= "r" (str.at var40 329)))
(assert (= "a" (str.at var43 78)))
(assert (= "J" (str.at var39 96)))
(assert (= ">" (str.at var15 37)))
(assert (= "*" (str.at var35 434)))
(assert (= "B" (str.at var47 756)))
(assert (= "I" (str.at var54 903)))
(assert (= "{" (str.at var27 620)))
(assert (= "v" (str.at var9 171)))
(assert (= "n" (str.at var17 923)))
(assert (= "T" (str.at var20 409)))
(assert (= "&" (str.at var36 139)))
(assert (= "'" (str.at var40 805)))
(assert (= ")" (str.at var46 226)))
(assert (= "k" (str.at var40 489)))
(assert (= "]" (str.at var9 709)))
(assert (= ">" (str.at var56 896)))
(assert (= "7" (str.at var36 172)))
(assert (= "N" (str.at var36 98)))
(assert (= "&" (str.at var14 928)))
(assert (= "*" (str.at var31 943)))
(assert (= "4" (str.at var47 68)))
(assert (= "o" (str.at var9 731)))
(assert (= "u" (str.at var42 933)))
(assert (= "I" (str.at var56 235)))
(assert (= "7" (str.at var32 723)))
(assert (= "Y" (str.at var39 48)))
(assert (= "~" (str.at var20 816)))
(assert (= "4" (str.at var38 538)))
(assert (= "," (str.at var57 23)))
(assert (= "]" (str.at var19 119)))
(assert (= "x" (str.at var18 743)))
(assert (= "a" (str.at var3 663)))
(assert (= ":" (str.at var51 677)))
(assert (= "F" (str.at var60 664)))
(assert (= "C" (str.at var29 411)))
(assert (= "{" (str.at var37 411)))
(assert (= "q" (str.at var22 347)))
(assert (= "S" (str.at var49 546)))
(assert (= ";" (str.at var60 253)))
(assert (= "p" (str.at var14 206)))
(assert (= "?" (str.at var46 196)))
(assert (= "'" (str.at var27 748)))
(assert (= "G" (str.at var47 10)))
(assert (= "y" (str.at var27 775)))
(assert (= "t" (str.at var23 586)))
(assert (= "$" (str.at var48 601)))
(assert (= "V" (str.at var55 422)))
(assert (= "u" (str.at var37 185)))
(assert (= "=" (str.at var37 681)))
(assert (= "G" (str.at var48 948)))
(assert (= "!" (str.at var2 402)))
(assert (= "o" (str.at var51 8)))
(assert (= "?" (str.at var53 512)))
(assert (= "q" (str.at var57 779)))
(assert (= ":" (str.at var15 642)))
(assert (= "0" (str.at var45 451)))
(assert (= "b" (str.at var28 553)))
(assert (= "%" (str.at var19 858)))
(assert (= "$" (str.at var42 756)))
(assert (= "Z" (str.at var38 480)))
(assert (= "5" (str.at var36 209)))
(assert (= "1" (str.at var56 574)))
(assert (= "3" (str.at var51 396)))
(assert (= "R" (str.at var54 812)))
(assert (= "S" (str.at var1 58)))
(assert (= "n" (str.at var23 902)))
(assert (= "=" (str.at var4 310)))
(assert (= "<" (str.at var41 93)))
(assert (= "w" (str.at var54 139)))
(assert (= "0" (str.at var55 458)))
(assert (= "F" (str.at var15 384)))
(assert (= "*" (str.at var13 92)))
(assert (= "n" (str.at var43 769)))
(assert (= "j" (str.at var60 539)))
(assert (= "k" (str.at var46 749)))
(assert (= "l" (str.at var46 892)))
(assert (= """" (str.at var37 311)))
(assert (= "/" (str.at var14 519)))
(assert (= "t" (str.at var26 468)))
(assert (= "H" (str.at var37 806)))
(assert (= "P" (str.at var35 921)))
(assert (= "H" (str.at var44 546)))
(assert (= "b" (str.at var43 344)))
(assert (= "N" (str.at var19 645)))
(assert (= ")" (str.at var28 411)))
(assert (= "k" (str.at var40 674)))
(assert (= "v" (str.at var32 737)))
(assert (= "s" (str.at var1 398)))
(assert (= "&" (str.at var44 786)))
(assert (= "W" (str.at var5 792)))
(assert (= "m" (str.at var13 706)))
(assert (= "8" (str.at var3 746)))
(assert (= "," (str.at var12 545)))
(assert (= "x" (str.at var15 811)))
(assert (= "u" (str.at var53 724)))
(assert (= "x" (str.at var24 934)))
(assert (= "6" (str.at var60 163)))
(assert (= "o" (str.at var28 413)))
(assert (= "A" (str.at var51 77)))
(assert (= "j" (str.at var20 85)))
(assert (= "a" (str.at var53 936)))
(assert (= "i" (str.at var23 101)))
(assert (= "L" (str.at var43 99)))
(assert (= "4" (str.at var19 242)))
(assert (= "c" (str.at var37 943)))
(assert (= "Y" (str.at var51 45)))
(assert (= "3" (str.at var48 965)))
(assert (= "O" (str.at var32 733)))
(assert (= "$" (str.at var54 315)))
(assert (= "D" (str.at var22 822)))
(assert (= "u" (str.at var54 963)))
(assert (= "L" (str.at var9 216)))
(assert (= "3" (str.at var40 470)))
(assert (= "C" (str.at var49 888)))
(assert (= "1" (str.at var54 810)))
(assert (= "f" (str.at var44 580)))
(assert (= "t" (str.at var22 903)))
(assert (= "I" (str.at var6 31)))
(assert (= "I" (str.at var2 62)))
(assert (= ":" (str.at var44 689)))
(assert (= "j" (str.at var12 778)))
(assert (= "{" (str.at var34 96)))
(assert (= "}" (str.at var46 337)))
(assert (= "t" (str.at var55 88)))
(assert (= "2" (str.at var18 770)))
(assert (= "f" (str.at var45 918)))
(assert (= "H" (str.at var25 384)))
(assert (= "[" (str.at var43 37)))
(assert (= "V" (str.at var16 236)))
(assert (= "v" (str.at var28 81)))
(assert (= "-" (str.at var4 113)))
(assert (= "Z" (str.at var1 552)))
(assert (= "4" (str.at var24 899)))
(assert (= "q" (str.at var12 29)))
(assert (= """" (str.at var32 983)))
(assert (= "^" (str.at var43 307)))
(assert (= "u" (str.at var33 424)))
(assert (= "m" (str.at var10 84)))
(assert (= "o" (str.at var31 179)))
(assert (= "z" (str.at var24 636)))
(assert (= "X" (str.at var21 636)))
(assert (= "'" (str.at var42 842)))
(assert (= "3" (str.at var51 668)))
(assert (= "k" (str.at var55 324)))
(assert (= "`" (str.at var60 969)))
(assert (= "S" (str.at var28 470)))
(assert (= "9" (str.at var10 206)))
(assert (= "T" (str.at var4 22)))
(assert (= "u" (str.at var12 902)))
(assert (= "@" (str.at var9 979)))
(assert (= ">" (str.at var38 100)))
(assert (= "p" (str.at var5 149)))
(assert (= "3" (str.at var6 235)))
(assert (= "&" (str.at var58 355)))
(assert (= "z" (str.at var36 976)))
(assert (= "%" (str.at var8 423)))
(assert (= "0" (str.at var60 359)))
(assert (= "'" (str.at var26 198)))
(assert (= "&" (str.at var39 966)))
(assert (= "^" (str.at var30 13)))
(assert (= "N" (str.at var6 140)))
(assert (= "z" (str.at var24 62)))
(assert (= "%" (str.at var0 181)))
(assert (= ";" (str.at var43 196)))
(assert (= "+" (str.at var7 908)))
(assert (= "P" (str.at var40 357)))
(assert (= "y" (str.at var43 999)))
(assert (= ">" (str.at var10 153)))
(assert (= "L" (str.at var22 407)))
(assert (= "z" (str.at var41 22)))
(assert (= "o" (str.at var24 862)))
(assert (= "*" (str.at var24 404)))
(assert (= "q" (str.at var8 852)))
(assert (= "X" (str.at var24 751)))
(assert (= "U" (str.at var59 595)))
(assert (= "?" (str.at var2 655)))
(assert (= "/" (str.at var31 270)))
(assert (= "M" (str.at var50 352)))
(assert (= "-" (str.at var17 627)))
(assert (= "t" (str.at var41 66)))
(assert (= "." (str.at var15 855)))
(assert (= "7" (str.at var37 676)))
(assert (= "W" (str.at var42 387)))
(assert (= "s" (str.at var13 716)))
(assert (= "l" (str.at var17 633)))
(assert (= "/" (str.at var32 394)))
(assert (= "J" (str.at var2 13)))
(assert (= "k" (str.at var0 645)))
(assert (= "v" (str.at var60 413)))
(assert (= "G" (str.at var10 379)))
(assert (= ":" (str.at var2 697)))
(assert (= "c" (str.at var45 223)))
(assert (= "a" (str.at var48 951)))
(assert (= "b" (str.at var36 53)))
(assert (= "a" (str.at var8 945)))
(assert (= "-" (str.at var57 221)))
(assert (= "C" (str.at var22 692)))
(assert (= "!" (str.at var16 366)))
(assert (= "F" (str.at var14 724)))
(assert (= ")" (str.at var4 803)))
(assert (= "C" (str.at var3 196)))
(assert (= "g" (str.at var31 690)))
(assert (= "x" (str.at var15 306)))
(assert (= "[" (str.at var52 942)))
(assert (= "O" (str.at var24 571)))
(assert (= "&" (str.at var43 897)))
(assert (= "}" (str.at var13 787)))
(assert (= "w" (str.at var27 499)))
(assert (= "d" (str.at var1 560)))
(assert (= "m" (str.at var55 167)))
(assert (= "L" (str.at var19 5)))
(assert (= "W" (str.at var4 453)))
(assert (= "h" (str.at var1 267)))
(assert (= "o" (str.at var37 950)))
(assert (= "i" (str.at var26 947)))
(assert (= "v" (str.at var54 428)))
(assert (= "S" (str.at var35 319)))
(assert (= "w" (str.at var52 510)))
(assert (= "F" (str.at var10 191)))
(assert (= "^" (str.at var49 183)))
(assert (= "d" (str.at var10 459)))
(assert (= "n" (str.at var8 987)))
(assert (= "m" (str.at var52 177)))
(assert (= "T" (str.at var53 772)))
(assert (= ";" (str.at var52 314)))
(assert (= "S" (str.at var1 335)))
(assert (= "~" (str.at var31 366)))
(assert (= "@" (str.at var0 85)))
(assert (= "k" (str.at var2 913)))
(assert (= "\\" (str.at var29 109)))
(assert (= "e" (str.at var21 556)))
(assert (= "N" (str.at var16 219)))
(assert (= "f" (str.at var20 862)))
(assert (= "l" (str.at var13 840)))
(assert (= "," (str.at var26 24)))
(assert (= "@" (str.at var12 994)))
(assert (= "&" (str.at var11 603)))
(assert (= "\\" (str.at var8 149)))
(assert (= "1" (str.at var26 854)))
(assert (= """" (str.at var6 430)))
(assert (= "(" (str.at var60 45)))
(assert (= "~" (str.at var44 830)))
(assert (= "W" (str.at var34 965)))
(assert (= "q" (str.at var11 455)))
(assert (= "6" (str.at var29 477)))
(assert (= "m" (str.at var36 155)))
(assert (= "W" (str.at var7 981)))
(assert (= "y" (str.at var29 723)))
(assert (= "w" (str.at var12 630)))
(assert (= "v" (str.at var12 381)))
(assert (= "F" (str.at var53 872)))
(assert (= "3" (str.at var33 651)))
(assert (= "^" (str.at var52 376)))
(assert (= "h" (str.at var33 302)))
(assert (= "m" (str.at var24 930)))
(assert (= "D" (str.at var33 506)))
(assert (= "n" (str.at var10 185)))
(assert (= "s" (str.at var11 236)))
(assert (= "j" (str.at var14 201)))
(assert (= "%" (str.at var60 581)))
(assert (= ":" (str.at var52 615)))
(assert (= "p" (str.at var38 613)))
(assert (= "9" (str.at var2 278)))
(assert (= "H" (str.at var15 380)))
(assert (= "W" (str.at var27 808)))
(assert (= "R" (str.at var47 400)))
(assert (= "4" (str.at var31 310)))
(assert (= "?" (str.at var30 382)))
(assert (= "0" (str.at var28 184)))
(assert (= "{" (str.at var19 790)))
(assert (= "k" (str.at var25 553)))
(assert (= "k" (str.at var19 828)))
(assert (= "$" (str.at var20 129)))
(assert (= "a" (str.at var39 332)))
(assert (= ":" (str.at var10 608)))
(assert (= "L" (str.at var0 284)))
(assert (= "-" (str.at var35 622)))
(assert (= "s" (str.at var45 996)))
(assert (= "}" (str.at var36 101)))
(assert (= "t" (str.at var38 779)))
(assert (= "+" (str.at var60 249)))
(assert (= "R" (str.at var3 362)))
(assert (= "," (str.at var14 303)))
(assert (= "|" (str.at var28 842)))
(assert (= "a" (str.at var42 317)))
(assert (= "n" (str.at var7 664)))
(assert (= "P" (str.at var44 70)))
(assert (= "5" (str.at var58 850)))
(assert (= "r" (str.at var48 375)))
(assert (= "9" (str.at var55 275)))
(assert (= "w" (str.at var10 324)))
(assert (= "'" (str.at var26 897)))
(assert (= "/" (str.at var10 435)))
(assert (= "(" (str.at var27 641)))
(assert (= "a" (str.at var35 563)))
(assert (= "d" (str.at var25 175)))
(assert (= "U" (str.at var6 275)))
(assert (= "." (str.at var23 24)))
(assert (= "D" (str.at var48 280)))
(assert (= "x" (str.at var16 402)))
(assert (= "B" (str.at var57 128)))
(assert (= "N" (str.at var54 856)))
(assert (= "C" (str.at var14 399)))
(assert (= "e" (str.at var16 239)))
(assert (= "U" (str.at var48 288)))
(assert (= "Y" (str.at var24 975)))
(assert (= "'" (str.at var27 460)))
(assert (= "u" (str.at var60 118)))
(assert (= "w" (str.at var59 3)))
(assert (= "g" (str.at var57 430)))
(assert (= "Z" (str.at var54 467)))
(assert (= "n" (str.at var56 494)))
(assert (= "m" (str.at var50 988)))
(assert (= "$" (str.at var13 846)))
(assert (= "m" (str.at var26 903)))
(assert (= ")" (str.at var17 215)))
(assert (= "T" (str.at var23 318)))
(assert (= "_" (str.at var4 112)))
(assert (= "+" (str.at var40 463)))
(assert (= "#" (str.at var56 797)))
(assert (= "%" (str.at var58 170)))
(assert (= "V" (str.at var41 446)))
(assert (= "b" (str.at var37 333)))
(assert (= "5" (str.at var29 167)))
(assert (= "T" (str.at var34 377)))
(assert (= "j" (str.at var38 539)))
(assert (= "M" (str.at var24 683)))
(assert (= "V" (str.at var16 414)))
(assert (= "f" (str.at var44 528)))
(assert (= "l" (str.at var43 938)))
(assert (= ">" (str.at var56 280)))
(assert (= "I" (str.at var12 793)))
(assert (= "E" (str.at var17 571)))
(assert (= "~" (str.at var13 303)))
(assert (= ":" (str.at var46 36)))
(assert (= "2" (str.at var29 62)))
(assert (= "3" (str.at var18 610)))
(assert (= "b" (str.at var43 972)))
(assert (= ">" (str.at var53 977)))
(assert (= "S" (str.at var9 184)))
(assert (= ";" (str.at var17 151)))
(assert (= "Z" (str.at var6 132)))
(assert (= ":" (str.at var47 815)))
(assert (= "i" (str.at var1 608)))
(assert (= "d" (str.at var39 361)))
(assert (= "t" (str.at var4 245)))
(assert (= ")" (str.at var13 462)))
(assert (= "$" (str.at var13 421)))
(assert (= "7" (str.at var45 680)))
(assert (= "J" (str.at var15 211)))
(assert (= "k" (str.at var34 828)))
(assert (= "*" (str.at var3 990)))
(assert (= "o" (str.at var34 83)))
(assert (= "3" (str.at var15 676)))
(assert (= "Z" (str.at var59 194)))
(assert (= ":" (str.at var15 865)))
(assert (= "E" (str.at var57 394)))
(assert (= "R" (str.at var30 541)))
(assert (= "%" (str.at var39 747)))
(assert (= ":" (str.at var31 888)))
(assert (= "e" (str.at var25 733)))
(assert (= "N" (str.at var15 940)))
(assert (= ">" (str.at var48 146)))
(assert (= "*" (str.at var6 220)))
(assert (= "i" (str.at var23 458)))
(assert (= "t" (str.at var34 803)))
(assert (= "h" (str.at var12 487)))
(assert (= "N" (str.at var3 935)))
(assert (= "x" (str.at var38 122)))
(assert (= "u" (str.at var49 131)))
(assert (= "E" (str.at var2 867)))
(assert (= "-" (str.at var46 390)))
(assert (= "A" (str.at var11 168)))
(assert (= "m" (str.at var18 397)))
(assert (= "g" (str.at var30 111)))
(assert (= "^" (str.at var59 996)))
(assert (= "x" (str.at var53 692)))
(assert (= "W" (str.at var2 879)))
(assert (= "b" (str.at var25 772)))
(assert (= "\\" (str.at var55 601)))
(assert (= "!" (str.at var16 18)))
(assert (= "6" (str.at var50 896)))
(assert (= "4" (str.at var24 437)))
(assert (= "y" (str.at var4 211)))
(assert (= "W" (str.at var21 549)))
(assert (= "G" (str.at var13 70)))
(assert (= "g" (str.at var6 482)))
(assert (= "W" (str.at var38 302)))
(assert (= "^" (str.at var32 645)))
(assert (= "`" (str.at var60 589)))
(assert (= "y" (str.at var16 642)))
(assert (= "t" (str.at var30 16)))
(assert (= """" (str.at var27 472)))
(assert (= "x" (str.at var32 452)))
(assert (= "Q" (str.at var28 3)))
(check-sat)